\ENCODING=ISO-8859-1
\Problem name: ilog.cplex

Minimize
 obj1: 0 caller_0_i_0#0 + 0 caller_0_j_0#1 + 0 caller_0_k_0#2
       + 0 caller_0_trityp_0#3 + 0 caller_0_trityp_1#4 + 0 x1#5 + 0 x2#6
       + 0 x9#7 + 0 x10#8 + 0 x12#9 + 0 x13#10 + 0 x15#11 + 0 x16#12 + 0 x18#13
       + 0 x19#14 + 0 x21#15 + 0 x22#16 + 0 caller_0_trityp_2#17
       + 0 caller_0_trityp_3#18 + 0 caller_0_trityp_4#19 + 0 x24#20 + 0 _1#22
       + 0 x24#23 + 0 _2#25 + 0 x27#26 + 0 _3#28 + 0 x30#29 + 0 x31#30
       + 0 _4#31 + 0 x33#32 + 0 x34#33 + 0 _5#34 + 0 x36#35 + 0 x37#36
       + 0 _7#37 + 0 x39#38 + 0 x40#39 + 0 _8#40 + 0 x42#41 + 0 x43#42
       + 0 _9#43 + 0 x45#44 + 0 _10#46 + 0 x48#47 + 0 x49#48
Subject To
 c1: x25#21  = 1
 c2: x25#24  = 1
 c3: x28#27  = 1
 c4: x46#45  = 1
 _1#0:      _1#22 = 1 <-> caller_0_i_0#0  = 2
 IloI1#1:   x25#21 = 1 -> _1#22  = 1
 _2#2:      _2#25 = 1 <-> caller_0_j_0#1  = 3
 IloI3#3:   x25#24 = 1 -> _2#25  = 1
 _3#4:      _3#28 = 1 <-> caller_0_k_0#2  = 2
 IloI5#5:   x28#27 = 1 -> _3#28  = 1
 _4#6:      _4#31 = 1 <-> caller_0_trityp_0#3  = 0
 IloI7#7:   x31#30 = 1 -> _4#31  = 1
 _5#8:      _5#34 = 1 <-> caller_0_trityp_1#4  = 0
 IloI9#9:   x34#33 = 1 -> _5#34  = 1
 _7#10:     _7#37 = 1 <-> - caller_0_trityp_1#4 + caller_0_trityp_2#17  = 0
 IloI11#11: x37#36 = 1 -> _7#37  = 1
 _8#12:     _8#40 = 1 <-> - caller_0_trityp_2#17 + caller_0_trityp_3#18  = 2
 IloI13#13: x40#39 = 1 -> _8#40  = 1
 _9#14:     _9#43 = 1 <-> - caller_0_trityp_3#18 + caller_0_trityp_4#19  = 0
 IloI15#15: x43#42 = 1 -> _9#43  = 1
 IloI16#16: x48#47 = 1 <-> - caller_0_k_0#2 + caller_0_i_0#0 + caller_0_j_0#1
            => 1
 IloI17#17: x49#48 = 1 <-> caller_0_trityp_4#19  = 1
 _10#18:    _10#46 = 1 <-> x48#47 + x49#48 => 2
 IloI19#19: x46#45 = 1 -> _10#46  = 1
Bounds
      caller_0_i_0#0 Free
      caller_0_j_0#1 Free
      caller_0_k_0#2 Free
      caller_0_trityp_0#3 Free
      caller_0_trityp_1#4 Free
 0 <= x1#5 <= 1
 0 <= x2#6 <= 1
 0 <= x9#7 <= 1
 0 <= x10#8 <= 1
 0 <= x12#9 <= 1
 0 <= x13#10 <= 1
 0 <= x15#11 <= 1
 0 <= x16#12 <= 1
 0 <= x18#13 <= 1
 0 <= x19#14 <= 1
 0 <= x21#15 <= 1
 0 <= x22#16 <= 1
      caller_0_trityp_2#17 Free
      caller_0_trityp_3#18 Free
      caller_0_trityp_4#19 Free
 0 <= x24#20 <= 1
 0 <= x25#21 <= 1
 0 <= _1#22 <= 1
 0 <= x24#23 <= 1
 0 <= x25#24 <= 1
 0 <= _2#25 <= 1
 0 <= x27#26 <= 1
 0 <= x28#27 <= 1
 0 <= _3#28 <= 1
 0 <= x30#29 <= 1
 0 <= x31#30 <= 1
 0 <= _4#31 <= 1
 0 <= x33#32 <= 1
 0 <= x34#33 <= 1
 0 <= _5#34 <= 1
 0 <= x36#35 <= 1
 0 <= x37#36 <= 1
 0 <= _7#37 <= 1
 0 <= x39#38 <= 1
 0 <= x40#39 <= 1
 0 <= _8#40 <= 1
 0 <= x42#41 <= 1
 0 <= x43#42 <= 1
 0 <= _9#43 <= 1
 0 <= x45#44 <= 1
 0 <= x46#45 <= 1
 0 <= _10#46 <= 1
 0 <= x48#47 <= 1
 0 <= x49#48 <= 1
Binaries
 x1#5  x2#6  x9#7  x10#8  x12#9  x13#10  x15#11  x16#12  x18#13  x19#14 
 x21#15  x22#16  x24#20  x25#21  _1#22  x24#23  x25#24  _2#25  x27#26  x28#27 
 _3#28  x30#29  x31#30  _4#31  x33#32  x34#33  _5#34  x36#35  x37#36  _7#37 
 x39#38  x40#39  _8#40  x42#41  x43#42  _9#43  x45#44  x46#45  _10#46  x48#47 
 x49#48 
Generals
 caller_0_i_0#0  caller_0_j_0#1  caller_0_k_0#2  caller_0_trityp_0#3 
 caller_0_trityp_1#4  caller_0_trityp_2#17  caller_0_trityp_3#18 
 caller_0_trityp_4#19 
End
